p tw 224 242
1 2
2 113
3 14
4 5
5 6
5 43
6 7
7 8
8 9
9 10
10 11
11 12
12 13
13 15
14 25
15 16
16 17
17 18
18 19
19 20
20 21
21 22
22 23
23 24
24 26
25 36
26 27
27 28
28 29
29 30
30 31
31 32
32 33
33 34
34 35
35 37
36 47
37 38
38 39
39 40
40 41
41 42
42 139
43 44
44 45
45 46
46 48
47 58
47 69
48 49
48 103
49 50
50 51
51 52
52 53
53 54
53 103
54 55
55 56
56 57
57 59
58 139
59 60
60 61
61 62
62 63
63 64
64 65
65 66
66 67
67 68
68 70
69 80
70 71
71 72
71 84
72 73
73 74
74 75
75 76
76 77
77 78
78 79
78 84
79 81
80 91
81 82
82 83
83 84
84 85
85 86
86 87
87 88
88 89
89 90
90 92
91 102
92 93
93 94
94 95
95 96
96 97
97 98
98 99
99 100
100 101
101 139
102 114
103 104
104 105
105 106
106 107
107 108
108 109
109 110
109 139
110 111
111 112
112 115
113 148
114 125
115 116
116 117
116 118
117 139
118 119
119 120
120 121
121 122
122 123
123 124
124 126
125 136
126 127
127 128
128 129
129 130
130 131
131 132
132 133
133 134
134 135
135 137
136 141
136 164
137 138
138 139
139 140
141 142
142 143
143 144
144 145
145 146
146 147
147 149
148 159
149 150
150 151
150 164
151 152
152 153
153 154
154 155
155 156
156 157
157 158
157 178
158 160
159 170
160 161
161 162
162 163
163 164
163 178
164 165
165 166
166 167
167 168
168 169
169 171
170 181
171 172
172 173
173 174
174 175
175 176
176 177
177 178
178 179
179 180
180 182
181 192
182 183
183 184
184 185
185 186
186 187
187 188
188 189
188 195
189 190
190 191
191 193
192 203
193 194
194 195
194 199
195 196
196 197
197 198
198 199
198 202
199 200
200 201
201 222
202 204
203 214
203 69
204 205
205 206
206 207
207 208
208 209
209 210
209 222
210 211
210 222
211 212
212 213
213 215
214 3
215 216
216 217
217 218
218 219
219 220
220 221
220 222
221 222
222 223
223 224
224 4
